{'path_domain': './benchmarks/blocksworld-advanced/domain.pddl', 'path_instance': './benchmarks/blocksworld-advanced/p2_2.pddl', 'solver': 'minisat', 'time_limit': 1800, 'mem_limit': 8000, 'strong': False, 'start': 1, 'inc': 1, 'gen_info': False, 'show_policy': True, 'draw_policy': False, 'name_tmp': 'blocksworld-advanced,p2_2', 'tmp': False}
Setting atoms
# Atoms: 14
Setting initial
Setting goal
Setting actions
# Actions: 32
	Setting other actions
0 / 32
	Setting action card
Setting mutexes
Setting relevant actions
Setting splitting
Setting compatible actions
0 / 32
0.00017511285841464996
#######################################################################################
Trying with 3 states
Looking for strong plans: False
Fair actions: True
# Atoms: 14
# Actions: 32
SAT formula generation time = 0.007689
# Clauses = 2492
# Variables = 291
Creating formula...
	 Done creating formula. Calling solver...
Will now call SAT solver with 8000MB and 1799 seconds limits
./minisat -mem-lim=8000 -cpu-lim=1799 /home/messa/And-Star-Project/tmp_blocksworld-advanced,p2_2/formula.txt /home/messa/And-Star-Project/tmp_blocksworld-advanced,p2_2/outsat.txt
Done solver. Round time: 0.004573
Cumulated solver time: 0.004573363810777664
============================================================================
Controller -- CS = Controller State - START
============================================================================
===================
===================
Atom (CS)
___________________
----------
Atom emptyhand() (n0)
Atom on-table(b2) (n0)
Atom clear(b1) (n0)
Atom on(b1, b2) (n0)
----------
Atom holding(b1) (n1)
Atom on-table(b2) (n1)
Atom clear(b2) (n1)
----------
Atom clear(b1) (ng)
Atom clear(b2) (ng)
Atom emptyhand() (ng)
Atom on-table(b2) (ng)
Atom on-table(b1) (ng)
===================
===================
(CS, Action with arguments)
___________________
(n0,pick-up_DETDUP_1)
(n0,pick-up_DETDUP_0(b1,b2))
(n0,pick-up_DETDUP_1(b1,b2))
(n0,pick-up_DETDUP_0)
(n1,put-down)
(n1,put-down(b1))
===================
===================
(CS, Action name, CS)
___________________
(n0,pick-up_DETDUP_1,ng)
(n0,pick-up_DETDUP_0,n1)
(n1,put-down,ng)
===================
(CS, CS)
___________________
(n0,n1)
(n0,ng)
(n1,ng)
===================
Solved with 3 states
============================================================================
Controller -- CS = Controller State - END
============================================================================

Elapsed total time (s): 0.061357
Elapsed solver time (s): 0.004573
Elapsed solver time (s): [0.004573363810777664]
Looking for strong plans: False
Fair actions: True
Done
WARNING: for repeatability, setting FPU to use double precision
============================[ Problem Statistics ]=============================
|                                                                             |
WARNING! DIMACS header mismatch: wrong number of variables.
WARNING! DIMACS header mismatch: wrong number of clauses.
|  Number of variables:           291                                         |
|  Number of clauses:            1548                                         |
|  Parse time:                   0.00 s                                       |
|                                                                             |
============================[ Search Statistics ]==============================
| Conflicts |          ORIGINAL         |          LEARNT          | Progress |
|           |    Vars  Clauses Literals |    Limit  Clauses Lit/Cl |          |
===============================================================================
===============================================================================
restarts              : 1
conflicts             : 3              (737 /sec)
decisions             : 12             (0.00 % random) (2946 /sec)
propagations          : 327            (80285 /sec)
conflict literals     : 3              (0.00 % deleted)
Memory used           : 12.00 MB
CPU time              : 0.004073 s

SATISFIABLE
